Traveling Salesman Problem/TSP_generados/Aleatorio1621103252_6.tsp
NAME: Aleatorio1621103252_6.tsp
COMMENT: Randomly generated scenario
TYPE: TSP
DIMENSION: 6
EDGE_WEIGHT_TYPE: ATT
NODE_COORD_SECTION
1 45.57 37.63
2 46.93 41.26
3 11.97 13.81
4 47.83 43.24
5 29.61 2.35
6 2.69 21.86
