Traveling Salesman Problem/TSP_generados/Aleatorio1621103252_6.opt.tour
NAME: Aleatorio1621103252_6.opt.tour
COMMENT: Optimal solution for Aleatorio1621103252_6 (128.04134936550227)
TYPE: TOUR
DIMENSION: 6
TOUR_SECTION
1 5 3 6 4 2
-1
EOF
